
******************************************************************************
This program contains Ipopt, a library for large-scale nonlinear optimization.
 Ipopt is released as open source code under the Eclipse Public License (EPL).
         For more information visit https://github.com/coin-or/Ipopt
******************************************************************************

This is Ipopt version 3.14.19, running with linear solver MUMPS 5.8.1.

Number of nonzeros in equality constraint Jacobian...:     4389
Number of nonzeros in inequality constraint Jacobian.:        0
Number of nonzeros in Lagrangian Hessian.............:     1050

Total number of variables............................:     1287
                     variables with only lower bounds:        0
                variables with lower and upper bounds:      457
                     variables with only upper bounds:        0
Total number of equality constraints.................:     1274
Total number of inequality constraints...............:        0
        inequality constraints with only lower bounds:        0
   inequality constraints with lower and upper bounds:        0
        inequality constraints with only upper bounds:        0

iter    objective    inf_pr   inf_du lg(mu)  ||d||  lg(rg) alpha_du alpha_pr  ls
   0  9.8484540e+00 9.90e+01 4.68e-04  -1.0 0.00e+00    -  0.00e+00 0.00e+00   0
   1  9.8504870e+00 4.98e+01 3.92e+01  -1.0 9.87e+01    -  1.23e-02 4.97e-01h  1
   2  9.8510132e+00 4.31e+01 4.22e+01  -1.0 4.91e+01    -  4.13e-01 1.35e-01h  1
   3  9.8526697e+00 1.76e-03 7.74e+00  -1.0 4.25e+01    -  7.46e-01 1.00e+00h  1
   4  9.8558613e+00 4.15e-03 3.38e+01  -1.0 1.36e+00    -  5.85e-01 1.00e+00f  1
   5  9.8629874e+00 1.55e-03 2.08e+00  -1.0 3.05e+00    -  8.97e-01 1.00e+00f  1
   6  9.8821555e+00 1.02e-02 9.68e-01  -1.0 2.08e+01    -  2.77e-01 3.39e-01f  1
   7  9.8936931e+00 9.65e-03 8.06e+00  -1.0 1.18e+01    -  1.00e+00 2.79e-01f  1
   8  9.9034790e+00 2.76e-01 8.46e-04  -1.0 9.67e-01    -  1.00e+00 1.00e+00f  1
   9  9.8949518e+00 4.42e-01 1.71e-03  -1.7 1.05e+00    -  1.00e+00 1.00e+00h  1
iter    objective    inf_pr   inf_du lg(mu)  ||d||  lg(rg) alpha_du alpha_pr  ls
  10  9.8935010e+00 2.42e-02 4.61e-05  -1.7 6.20e-01    -  1.00e+00 1.00e+00h  1
  11  9.8920938e+00 7.54e-02 6.32e-01  -3.8 6.22e-01    -  8.72e-01 1.00e+00h  1
  12  9.8602401e+00 1.95e-02 3.23e-02  -3.8 9.51e+00    -  9.70e-01 9.64e-01h  1
  13  9.8617374e+00 2.37e-04 1.50e-01  -3.8 6.44e-01    -  2.73e-01 1.00e+00h  1
  14  9.8511858e+00 3.66e-03 5.04e-03  -3.8 4.53e+00    -  1.00e+00 1.00e+00h  1
  15  9.8513219e+00 2.21e-06 5.11e-06  -3.8 1.33e-01    -  1.00e+00 1.00e+00h  1
  16  9.8480743e+00 3.93e-04 5.31e-04  -5.7 1.56e+00    -  8.18e-01 1.00e+00h  1
  17  9.8479058e+00 1.39e-06 1.63e-06  -5.7 1.08e-01    -  1.00e+00 1.00e+00h  1
  18  9.8478593e+00 8.47e-08 1.13e-07  -8.6 2.33e-02    -  9.98e-01 1.00e+00h  1
  19  9.8478593e+00 4.88e-14 5.62e-14  -8.6 2.06e-05    -  1.00e+00 1.00e+00h  1

Number of Iterations....: 19

                                   (scaled)                 (unscaled)
Objective...............:   9.8478593004933686e+00    9.8478593004933686e+00
Dual infeasibility......:   5.6232796197264179e-14    5.6232796197264179e-14
Constraint violation....:   4.8849813083506888e-14    4.8849813083506888e-14
Variable bound violation:   0.0000000000000000e+00    0.0000000000000000e+00
Complementarity.........:   2.5694853486940478e-09    2.5694853486940478e-09
Overall NLP error.......:   2.5694853486940478e-09    2.5694853486940478e-09


Number of objective function evaluations             = 20
Number of objective gradient evaluations             = 20
Number of equality constraint evaluations            = 20
Number of inequality constraint evaluations          = 0
Number of equality constraint Jacobian evaluations   = 20
Number of inequality constraint Jacobian evaluations = 0
Number of Lagrangian Hessian evaluations             = 19
Total seconds in IPOPT                               = 0.099

EXIT: Optimal Solution Found.
